(declare-datatypes ((Unit 0)) (((unit))))
(declare-datatypes ((Bits 0)) (((Bits (len (_ BitVec 8)) (contents (_ BitVec 64))))))
(declare-datatypes ((Zexception 0)) (((z__dummy_exnz3 (unz__dummy_exnz3 Unit)))))
(declare-const zz40/1 (_ BitVec 32))
(declare-const zz41/1 (_ BitVec 32))
(assert (not (= (bvadd zz40/1 #x00000001) zz41/1)))
(check-sat)
